sat
(
  (define-fun C4_VM3 () Int
    0)
  (define-fun C1_VM8 () Int
    1)
  (define-fun C3_VM5 () Int
    1)
  (define-fun C4_VM5 () Int
    0)
  (define-fun C5_VM4 () Int
    0)
  (define-fun C4_VM6 () Int
    0)
  (define-fun C1_VM3 () Int
    1)
  (define-fun C4_VM1 () Int
    0)
  (define-fun PriceProv2 () Int
    210)
  (define-fun PriceProv6 () Int
    210)
  (define-fun StorageProv5 () Int
    2000)
  (define-fun VM6Type () Int
    341)
  (define-fun VM7Type () Int
    433)
  (define-fun MemProv6 () Int
    7500)
  (define-fun C3_VM1 () Int
    0)
  (define-fun PriceProv7 () Int
    116)
  (define-fun C1_VM1 () Int
    0)
  (define-fun VM3Type () Int
    433)
  (define-fun C1_VM6 () Int
    0)
  (define-fun C2_VM7 () Int
    0)
  (define-fun C3_VM3 () Int
    0)
  (define-fun StorageProv3 () Int
    2000)
  (define-fun StorageProv4 () Int
    2000)
  (define-fun VM2Type () Int
    341)
  (define-fun PriceProv3 () Int
    116)
  (define-fun PriceProv1 () Int
    116)
  (define-fun ProcProv5 () Int
    4)
  (define-fun MemProv8 () Int
    3750)
  (define-fun VM5Type () Int
    341)
  (define-fun VM1Type () Int
    433)
  (define-fun VM8Type () Int
    433)
  (define-fun ProcProv8 () Int
    2)
  (define-fun C4_VM2 () Int
    0)
  (define-fun C2_VM8 () Int
    0)
  (define-fun C4_VM4 () Int
    0)
  (define-fun C1_VM2 () Int
    0)
  (define-fun PriceProv5 () Int
    210)
  (define-fun StorageProv1 () Int
    2000)
  (define-fun C4_VM8 () Int
    0)
  (define-fun C5_VM1 () Int
    0)
  (define-fun StorageProv6 () Int
    2000)
  (define-fun PriceProv8 () Int
    116)
  (define-fun ProcProv3 () Int
    2)
  (define-fun StorageProv7 () Int
    2000)
  (define-fun C2_VM3 () Int
    0)
  (define-fun C5_VM2 () Int
    1)
  (define-fun C5_VM3 () Int
    0)
  (define-fun MemProv2 () Int
    7500)
  (define-fun MemProv5 () Int
    7500)
  (define-fun VM4Type () Int
    433)
  (define-fun ProcProv4 () Int
    2)
  (define-fun C4_VM7 () Int
    0)
  (define-fun C3_VM4 () Int
    0)
  (define-fun MemProv1 () Int
    3750)
  (define-fun C2_VM4 () Int
    1)
  (define-fun C3_VM8 () Int
    0)
  (define-fun MemProv4 () Int
    3750)
  (define-fun StorageProv8 () Int
    2000)
  (define-fun C1_VM5 () Int
    0)
  (define-fun C2_VM2 () Int
    0)
  (define-fun C1_VM7 () Int
    1)
  (define-fun MemProv3 () Int
    3750)
  (define-fun C3_VM6 () Int
    0)
  (define-fun ProcProv7 () Int
    2)
  (define-fun C2_VM1 () Int
    1)
  (define-fun C3_VM2 () Int
    0)
  (define-fun C5_VM6 () Int
    1)
  (define-fun ProcProv1 () Int
    2)
  (define-fun C5_VM5 () Int
    0)
  (define-fun ProcProv2 () Int
    4)
  (define-fun ProcProv6 () Int
    4)
  (define-fun C5_VM8 () Int
    0)
  (define-fun PriceProv4 () Int
    116)
  (define-fun C1_VM4 () Int
    0)
  (define-fun StorageProv2 () Int
    2000)
  (define-fun C5_VM7 () Int
    0)
  (define-fun C2_VM5 () Int
    0)
  (define-fun C3_VM7 () Int
    0)
  (define-fun C2_VM6 () Int
    0)
  (define-fun MemProv7 () Int
    3750)
)
(objectives
 ((+ 0
   PriceProv1
   PriceProv2
   PriceProv3
   PriceProv4
   PriceProv5
   PriceProv6
   PriceProv7
   PriceProv8) 1210)
)
(:added-eqs                   17519486
 :arith-eq-adapter            153458
 :arith-bound-propagations-lp 6226474
 :arith-conflicts             2532
 :arith-diseq                 24143048
 :arith-fixed-eqs             22027
 :arith-lower                 38131312
 :arith-make-feasible         392200
 :arith-max-columns           591
 :arith-max-rows              26
 :arith-upper                 10372994
 :binary-propagations         68355262
 :bv-bit2core                 282108
 :bv-dynamic-diseqs           23988478
 :bv-dynamic-eqs              1
 :bv->core-eq                 2922
 :conflicts                   137353
 :decisions                   1118279
 :del-clause                  30427036
 :final-checks                157
 :max-memory                  627.32
 :memory                      616.72
 :minimized-lits              43325197
 :mk-bool-var                 369822
 :mk-clause                   30427631
 :mk-clause-binary            19414
 :num-allocs                  47977364462.00
 :num-checks                  121
 :pb-conflicts                1045
 :pb-predicates               7
 :pb-propagations             27531
 :pb-resolves                 882
 :propagations                226148450
 :restarts                    702
 :rlimit-count                804246592
 :time                        146.21
 :total-time                  146.13)
